model_MIP.lp
\Problem name: Lineless

Minimize
OBJROW: C_max
Subject To
constr(0):  - C(1,1) + C(1,2) -1000000 x(1,1,2) >= -999997
constr(1):  - C(1,1) + C(1,3) -1000000 x(1,1,3) >= -999996
constr(2):  - C(1,2) + C(1,3) -1000000 x(1,2,3) >= -999996
constr(3):  - C(2,1) + C(2,2) -1000000 x(2,1,2) >= -999992
constr(4):  - C(2,1) + C(2,3) -1000000 x(2,1,3) >= -999993
constr(5):  - C(2,2) + C(2,3) -1000000 x(2,2,3) >= -999993
constr(6):  - C(3,1) + C(3,2) -1000000 x(3,1,2) >= -999994
constr(7):  - C(4,2) + C(4,3) -1000000 x(4,2,3) >= -999997
constr(8):  C(1,1) - C(1,2) + 1000000 x(1,1,2) >= 10
constr(9):  C(1,1) - C(1,3) + 1000000 x(1,1,3) >= 10
constr(10):  C(1,2) - C(1,3) + 1000000 x(1,2,3) >= 3
constr(11):  C(2,1) - C(2,2) + 1000000 x(2,1,2) >= 8
constr(12):  C(2,1) - C(2,3) + 1000000 x(2,1,3) >= 8
constr(13):  C(2,2) - C(2,3) + 1000000 x(2,2,3) >= 8
constr(14):  C(3,1) - C(3,2) + 1000000 x(3,1,2) >= 4
constr(15):  C(4,2) - C(4,3) + 1000000 x(4,2,3) >= 5
constr(16):  - C(1,1) + C(2,1) - delta(0,1) - delta(1,1) >= 8
constr(17):  - C(2,1) + C(3,1) -3 delta(0,1) -3 delta(1,1) >= 4
constr(18):  C(1,2) - C(2,2) - delta(0,2) - delta(1,2) >= 3
constr(19):  - C(1,2) + C(4,2) -3 delta(0,2) -3 delta(1,2) >= 5
constr(20):  C(3,2) - C(4,2) - delta(0,2) - delta(1,2) >= 6
constr(21):  - C(1,3) + C(2,3) - delta(0,3) - delta(1,3) >= 7
constr(22):  - C(2,3) + C(4,3) -3 delta(0,3) -3 delta(1,3) >= 3
constr(23):  C(2,2) - C(3,1) -1000000 delta(0,1) -1000005 delta(0,2) -5 delta(1,2) -1000000 gamma(1,2) >= -2999992
constr(24):  - C(2,2) + C(3,1) -1000005 delta(0,1) -1000000 delta(0,2) -5 delta(1,1) + 1000000 gamma(1,2) >= -1999996
constr(25):  C(2,2) - C(3,1) -5 delta(0,2) -1000000 delta(1,1) -1000005 delta(1,2) -1000000 gamma(1,2) >= -2999992
constr(26):  - C(2,2) + C(3,1) -5 delta(0,1) -1000005 delta(1,1) -1000000 delta(1,2) + 1000000 gamma(1,2) >= -1999996
constr(27):  C(1,3) - C(3,1) -1000002 delta(0,1) -1000003 delta(0,3) -2 delta(1,1) -3 delta(1,3) -1000000 gamma(1,3) >= -2999996
constr(28):  - C(1,3) + C(3,1) -1000005 delta(0,1) -1000000 delta(0,3) -5 delta(1,1) + 1000000 gamma(1,3) >= -1999996
constr(29):  C(1,3) - C(3,1) -2 delta(0,1) -3 delta(0,3) -1000002 delta(1,1) -1000003 delta(1,3) -1000000 gamma(1,3) >= -2999996
constr(30):  - C(1,3) + C(3,1) -5 delta(0,1) -1000005 delta(1,1) -1000000 delta(1,3) + 1000000 gamma(1,3) >= -1999996
constr(31):  C(1,1) - C(3,2) -1000005 delta(0,1) -1000000 delta(0,2) -5 delta(1,1) -1000000 gamma(2,1) >= -2999990
constr(32):  - C(1,1) + C(3,2) -1000000 delta(0,1) -1000005 delta(0,2) -5 delta(1,2) + 1000000 gamma(2,1) >= -1999994
constr(33):  C(1,1) - C(3,2) -5 delta(0,1) -1000005 delta(1,1) -1000000 delta(1,2) -1000000 gamma(2,1) >= -2999990
constr(34):  - C(1,1) + C(3,2) -5 delta(0,2) -1000000 delta(1,1) -1000005 delta(1,2) + 1000000 gamma(2,1) >= -1999994
constr(35):  C(1,3) - C(3,2) -2 delta(0,1) -1000000 delta(0,2) -1000003 delta(0,3) -2 delta(1,1) -3 delta(1,3) -1000000 gamma(2,3) >= -2999996
constr(36):  - C(1,3) + C(3,2) -1000005 delta(0,2) -1000000 delta(0,3) -5 delta(1,2) + 1000000 gamma(2,3) >= -1999994
constr(37):  C(1,3) - C(3,2) -2 delta(0,1) -3 delta(0,3) -2 delta(1,1) -1000000 delta(1,2) -1000003 delta(1,3) -1000000 gamma(2,3) >= -2999996
constr(38):  - C(1,3) + C(3,2) -5 delta(0,2) -1000005 delta(1,2) -1000000 delta(1,3) + 1000000 gamma(2,3) >= -1999994
constr(39):  C(1,1) - C(4,3) -1000005 delta(0,1) -1000000 delta(0,3) -5 delta(1,1) -1000000 gamma(3,1) >= -2999990
constr(40):  - C(1,1) + C(4,3) -1000002 delta(0,1) -1000003 delta(0,3) -2 delta(1,1) -3 delta(1,3) + 1000000 gamma(3,1) >= -1999997
constr(41):  C(1,1) - C(4,3) -5 delta(0,1) -1000005 delta(1,1) -1000000 delta(1,3) -1000000 gamma(3,1) >= -2999990
constr(42):  - C(1,1) + C(4,3) -2 delta(0,1) -3 delta(0,3) -1000002 delta(1,1) -1000003 delta(1,3) + 1000000 gamma(3,1) >= -1999997
constr(43):  C(2,2) - C(4,3) -1000005 delta(0,2) -1000000 delta(0,3) -5 delta(1,2) -1000000 gamma(3,2) >= -2999992
constr(44):  - C(2,2) + C(4,3) -2 delta(0,1) -1000000 delta(0,2) -1000003 delta(0,3) -2 delta(1,1) -3 delta(1,3) + 1000000 gamma(3,2) >= -1999997
constr(45):  C(2,2) - C(4,3) -5 delta(0,2) -1000005 delta(1,2) -1000000 delta(1,3) -1000000 gamma(3,2) >= -2999992
constr(46):  - C(2,2) + C(4,3) -2 delta(0,1) -3 delta(0,3) -2 delta(1,1) -1000000 delta(1,2) -1000003 delta(1,3) + 1000000 gamma(3,2) >= -1999997
constr(47):  C(1,1) -2 delta(0,1) -2 delta(1,1) >= 10
constr(48):  C(2,2) -2 delta(0,2) -2 delta(1,2) >= 8
constr(49):  C(1,3) -2 delta(0,3) -2 delta(1,3) >= 4
constr(50):  - C(3,1) + C(5,1) -2 delta(0,1) -2 delta(1,1) >= -0
constr(51):  - C(3,2) + C(5,2) -2 delta(0,2) -2 delta(1,2) >= -0
constr(52):  - C(4,3) + C(5,3) -2 delta(0,3) -2 delta(1,3) >= -0
constr(53):  x(1,1,2) + x(1,2,1) <= 1
constr(54):  x(1,1,3) + x(1,3,1) <= 1
constr(55):  x(1,2,3) + x(1,3,2) <= 1
constr(56):  x(2,1,2) + x(2,2,1) <= 1
constr(57):  x(2,1,3) + x(2,3,1) <= 1
constr(58):  x(2,2,3) + x(2,3,2) <= 1
constr(59):  x(3,1,2) + x(3,2,1) <= 1
constr(60):  x(4,2,3) + x(4,3,2) <= 1
constr(61):  gamma(1,2) + gamma(2,1) = 1
constr(62):  gamma(1,3) + gamma(3,1) = 1
constr(63):  gamma(1,2) + gamma(2,1) = 1
constr(64):  gamma(2,3) + gamma(3,2) = 1
constr(65):  gamma(1,3) + gamma(3,1) = 1
constr(66):  gamma(2,3) + gamma(3,2) = 1
constr(67):  C(1,1) >= 10
constr(68):  C(2,1) >= 8
constr(69):  C(3,1) >= 4
constr(70):  C(2,2) >= 8
constr(71):  C(1,2) >= 3
constr(72):  C(4,2) >= 5
constr(73):  C(3,2) >= 6
constr(74):  C(1,3) >= 4
constr(75):  C(2,3) >= 7
constr(76):  C(4,3) >= 3
constr(77):  C_max - C(5,1) >= -0
constr(78):  C_max - C(5,2) >= -0
constr(79):  C_max - C(5,3) >= -0
constr(80):  delta(0,1) + delta(1,1) = 1
constr(81):  delta(0,2) + delta(1,2) = 1
constr(82):  delta(0,3) + delta(1,3) = 1
constr(83):  x(0,0,1) + x(0,0,2) + x(0,0,3) = 1
constr(84):  x(1,0,1) + x(1,0,2) + x(1,0,3) = 1
constr(85):  x(2,0,1) + x(2,0,2) + x(2,0,3) = 1
constr(86):  x(3,0,1) + x(3,0,2) + x(3,0,3) = 1
constr(87):  x(4,0,1) + x(4,0,2) + x(4,0,3) = 1
constr(88):  x(5,0,1) + x(5,0,2) + x(5,0,3) = 1
constr(89):  gamma(1,1) = 0
constr(90):  gamma(2,2) = 0
constr(91):  gamma(3,3) = 0
Bounds
 0 <= x(0,0,0) <= 1
 0 <= x(0,0,1) <= 1
 0 <= x(0,0,2) <= 1
 0 <= x(0,0,3) <= 1
 0 <= x(0,0,4) <= 1
 0 <= x(0,1,0) <= 1
 0 <= x(0,1,1) <= 1
 0 <= x(0,1,2) <= 1
 0 <= x(0,1,3) <= 1
 0 <= x(0,1,4) <= 1
 0 <= x(0,2,0) <= 1
 0 <= x(0,2,1) <= 1
 0 <= x(0,2,2) <= 1
 0 <= x(0,2,3) <= 1
 0 <= x(0,2,4) <= 1
 0 <= x(0,3,0) <= 1
 0 <= x(0,3,1) <= 1
 0 <= x(0,3,2) <= 1
 0 <= x(0,3,3) <= 1
 0 <= x(0,3,4) <= 1
 0 <= x(0,4,0) <= 1
 0 <= x(0,4,1) <= 1
 0 <= x(0,4,2) <= 1
 0 <= x(0,4,3) <= 1
 0 <= x(0,4,4) <= 1
 0 <= x(1,0,0) <= 1
 0 <= x(1,0,1) <= 1
 0 <= x(1,0,2) <= 1
 0 <= x(1,0,3) <= 1
 0 <= x(1,0,4) <= 1
 0 <= x(1,1,0) <= 1
 0 <= x(1,1,1) <= 1
 0 <= x(1,1,2) <= 1
 0 <= x(1,1,3) <= 1
 0 <= x(1,1,4) <= 1
 0 <= x(1,2,0) <= 1
 0 <= x(1,2,1) <= 1
 0 <= x(1,2,2) <= 1
 0 <= x(1,2,3) <= 1
 0 <= x(1,2,4) <= 1
 0 <= x(1,3,0) <= 1
 0 <= x(1,3,1) <= 1
 0 <= x(1,3,2) <= 1
 0 <= x(1,3,3) <= 1
 0 <= x(1,3,4) <= 1
 0 <= x(1,4,0) <= 1
 0 <= x(1,4,1) <= 1
 0 <= x(1,4,2) <= 1
 0 <= x(1,4,3) <= 1
 0 <= x(1,4,4) <= 1
 0 <= x(2,0,0) <= 1
 0 <= x(2,0,1) <= 1
 0 <= x(2,0,2) <= 1
 0 <= x(2,0,3) <= 1
 0 <= x(2,0,4) <= 1
 0 <= x(2,1,0) <= 1
 0 <= x(2,1,1) <= 1
 0 <= x(2,1,2) <= 1
 0 <= x(2,1,3) <= 1
 0 <= x(2,1,4) <= 1
 0 <= x(2,2,0) <= 1
 0 <= x(2,2,1) <= 1
 0 <= x(2,2,2) <= 1
 0 <= x(2,2,3) <= 1
 0 <= x(2,2,4) <= 1
 0 <= x(2,3,0) <= 1
 0 <= x(2,3,1) <= 1
 0 <= x(2,3,2) <= 1
 0 <= x(2,3,3) <= 1
 0 <= x(2,3,4) <= 1
 0 <= x(2,4,0) <= 1
 0 <= x(2,4,1) <= 1
 0 <= x(2,4,2) <= 1
 0 <= x(2,4,3) <= 1
 0 <= x(2,4,4) <= 1
 0 <= x(3,0,0) <= 1
 0 <= x(3,0,1) <= 1
 0 <= x(3,0,2) <= 1
 0 <= x(3,0,3) <= 1
 0 <= x(3,0,4) <= 1
 0 <= x(3,1,0) <= 1
 0 <= x(3,1,1) <= 1
 0 <= x(3,1,2) <= 1
 0 <= x(3,1,3) <= 1
 0 <= x(3,1,4) <= 1
 0 <= x(3,2,0) <= 1
 0 <= x(3,2,1) <= 1
 0 <= x(3,2,2) <= 1
 0 <= x(3,2,3) <= 1
 0 <= x(3,2,4) <= 1
 0 <= x(3,3,0) <= 1
 0 <= x(3,3,1) <= 1
 0 <= x(3,3,2) <= 1
 0 <= x(3,3,3) <= 1
 0 <= x(3,3,4) <= 1
 0 <= x(3,4,0) <= 1
 0 <= x(3,4,1) <= 1
 0 <= x(3,4,2) <= 1
 0 <= x(3,4,3) <= 1
 0 <= x(3,4,4) <= 1
 0 <= x(4,0,0) <= 1
 0 <= x(4,0,1) <= 1
 0 <= x(4,0,2) <= 1
 0 <= x(4,0,3) <= 1
 0 <= x(4,0,4) <= 1
 0 <= x(4,1,0) <= 1
 0 <= x(4,1,1) <= 1
 0 <= x(4,1,2) <= 1
 0 <= x(4,1,3) <= 1
 0 <= x(4,1,4) <= 1
 0 <= x(4,2,0) <= 1
 0 <= x(4,2,1) <= 1
 0 <= x(4,2,2) <= 1
 0 <= x(4,2,3) <= 1
 0 <= x(4,2,4) <= 1
 0 <= x(4,3,0) <= 1
 0 <= x(4,3,1) <= 1
 0 <= x(4,3,2) <= 1
 0 <= x(4,3,3) <= 1
 0 <= x(4,3,4) <= 1
 0 <= x(4,4,0) <= 1
 0 <= x(4,4,1) <= 1
 0 <= x(4,4,2) <= 1
 0 <= x(4,4,3) <= 1
 0 <= x(4,4,4) <= 1
 0 <= x(5,0,0) <= 1
 0 <= x(5,0,1) <= 1
 0 <= x(5,0,2) <= 1
 0 <= x(5,0,3) <= 1
 0 <= x(5,0,4) <= 1
 0 <= x(5,1,0) <= 1
 0 <= x(5,1,1) <= 1
 0 <= x(5,1,2) <= 1
 0 <= x(5,1,3) <= 1
 0 <= x(5,1,4) <= 1
 0 <= x(5,2,0) <= 1
 0 <= x(5,2,1) <= 1
 0 <= x(5,2,2) <= 1
 0 <= x(5,2,3) <= 1
 0 <= x(5,2,4) <= 1
 0 <= x(5,3,0) <= 1
 0 <= x(5,3,1) <= 1
 0 <= x(5,3,2) <= 1
 0 <= x(5,3,3) <= 1
 0 <= x(5,3,4) <= 1
 0 <= x(5,4,0) <= 1
 0 <= x(5,4,1) <= 1
 0 <= x(5,4,2) <= 1
 0 <= x(5,4,3) <= 1
 0 <= x(5,4,4) <= 1
 0 <= delta(0,0) <= 1
 0 <= delta(0,1) <= 1
 0 <= delta(0,2) <= 1
 0 <= delta(0,3) <= 1
 0 <= delta(0,4) <= 1
 0 <= delta(1,0) <= 1
 0 <= delta(1,1) <= 1
 0 <= delta(1,2) <= 1
 0 <= delta(1,3) <= 1
 0 <= delta(1,4) <= 1
 0 <= gamma(0,0) <= 1
 0 <= gamma(0,1) <= 1
 0 <= gamma(0,2) <= 1
 0 <= gamma(0,3) <= 1
 0 <= gamma(0,4) <= 1
 0 <= gamma(1,0) <= 1
 0 <= gamma(1,1) <= 1
 0 <= gamma(1,2) <= 1
 0 <= gamma(1,3) <= 1
 0 <= gamma(1,4) <= 1
 0 <= gamma(2,0) <= 1
 0 <= gamma(2,1) <= 1
 0 <= gamma(2,2) <= 1
 0 <= gamma(2,3) <= 1
 0 <= gamma(2,4) <= 1
 0 <= gamma(3,0) <= 1
 0 <= gamma(3,1) <= 1
 0 <= gamma(3,2) <= 1
 0 <= gamma(3,3) <= 1
 0 <= gamma(3,4) <= 1
 0 <= gamma(4,0) <= 1
 0 <= gamma(4,1) <= 1
 0 <= gamma(4,2) <= 1
 0 <= gamma(4,3) <= 1
 0 <= gamma(4,4) <= 1
Integers
x(0,0,0) x(0,0,1) x(0,0,2) x(0,0,3) x(0,0,4) x(0,1,0) x(0,1,1) x(0,1,2) x(0,1,3) x(0,1,4) 
x(0,2,0) x(0,2,1) x(0,2,2) x(0,2,3) x(0,2,4) x(0,3,0) x(0,3,1) x(0,3,2) x(0,3,3) x(0,3,4) 
x(0,4,0) x(0,4,1) x(0,4,2) x(0,4,3) x(0,4,4) x(1,0,0) x(1,0,1) x(1,0,2) x(1,0,3) x(1,0,4) 
x(1,1,0) x(1,1,1) x(1,1,2) x(1,1,3) x(1,1,4) x(1,2,0) x(1,2,1) x(1,2,2) x(1,2,3) x(1,2,4) 
x(1,3,0) x(1,3,1) x(1,3,2) x(1,3,3) x(1,3,4) x(1,4,0) x(1,4,1) x(1,4,2) x(1,4,3) x(1,4,4) 
x(2,0,0) x(2,0,1) x(2,0,2) x(2,0,3) x(2,0,4) x(2,1,0) x(2,1,1) x(2,1,2) x(2,1,3) x(2,1,4) 
x(2,2,0) x(2,2,1) x(2,2,2) x(2,2,3) x(2,2,4) x(2,3,0) x(2,3,1) x(2,3,2) x(2,3,3) x(2,3,4) 
x(2,4,0) x(2,4,1) x(2,4,2) x(2,4,3) x(2,4,4) x(3,0,0) x(3,0,1) x(3,0,2) x(3,0,3) x(3,0,4) 
x(3,1,0) x(3,1,1) x(3,1,2) x(3,1,3) x(3,1,4) x(3,2,0) x(3,2,1) x(3,2,2) x(3,2,3) x(3,2,4) 
x(3,3,0) x(3,3,1) x(3,3,2) x(3,3,3) x(3,3,4) x(3,4,0) x(3,4,1) x(3,4,2) x(3,4,3) x(3,4,4) 
x(4,0,0) x(4,0,1) x(4,0,2) x(4,0,3) x(4,0,4) x(4,1,0) x(4,1,1) x(4,1,2) x(4,1,3) x(4,1,4) 
x(4,2,0) x(4,2,1) x(4,2,2) x(4,2,3) x(4,2,4) x(4,3,0) x(4,3,1) x(4,3,2) x(4,3,3) x(4,3,4) 
x(4,4,0) x(4,4,1) x(4,4,2) x(4,4,3) x(4,4,4) x(5,0,0) x(5,0,1) x(5,0,2) x(5,0,3) x(5,0,4) 
x(5,1,0) x(5,1,1) x(5,1,2) x(5,1,3) x(5,1,4) x(5,2,0) x(5,2,1) x(5,2,2) x(5,2,3) x(5,2,4) 
x(5,3,0) x(5,3,1) x(5,3,2) x(5,3,3) x(5,3,4) x(5,4,0) x(5,4,1) x(5,4,2) x(5,4,3) x(5,4,4) 
delta(0,0) delta(0,1) delta(0,2) delta(0,3) delta(0,4) delta(1,0) delta(1,1) delta(1,2) delta(1,3) delta(1,4) 
gamma(0,0) gamma(0,1) gamma(0,2) gamma(0,3) gamma(0,4) gamma(1,0) gamma(1,1) gamma(1,2) gamma(1,3) gamma(1,4) 
gamma(2,0) gamma(2,1) gamma(2,2) gamma(2,3) gamma(2,4) gamma(3,0) gamma(3,1) gamma(3,2) gamma(3,3) gamma(3,4) 
gamma(4,0) gamma(4,1) gamma(4,2) gamma(4,3) gamma(4,4) 
End
