model_MIP.sol
Feasible solution - objective 0.0
0 C_max 53.0 1.0
1 C(1,1) 12.0 0.0
2 C(1,2) 17.0 0.0
3 C(1,3) 37.0 0.0
4 C(2,1) 21.0 0.0
5 C(2,2) 13.0 0.0
6 C(2,3) 45.0 0.0
7 C(3,1) 28.0 0.0
8 C(3,2) 34.0 0.0
9 C(4,2) 27.0 0.0
10 C(4,3) 51.0 0.0
11 C(5,1) 53.0 0.0
12 C(5,2) 36.0 0.0
13 C(5,3) 53.0 0.0
14 x(0,0,1) 1.0 0.0
15 x(1,0,1) 1.0 0.0
16 x(1,1,2) 1.0 0.0
17 x(1,1,3) 1.0 0.0
18 x(1,2,3) 1.0 0.0
19 x(2,0,1) 1.0 0.0
20 x(2,1,3) 1.0 0.0
21 x(2,2,3) 1.0 0.0
22 x(3,0,3) 1.0 0.0
23 x(3,1,2) 1.0 0.0
24 x(4,0,3) 1.0 0.0
25 x(4,2,3) 1.0 0.0
26 x(5,0,2) 1.0 0.0
27 delta(0,1) 1.0 0.0
28 delta(0,3) 1.0 0.0
29 delta(1,2) 1.0 0.0
30 gamma(1,3) 1.0 0.0
31 gamma(2,1) 1.0 0.0
32 gamma(3,2) 1.0 0.0
